p cnf 964 2475
51 -2 -697 0
-51 2 0
-51 697 0
52 -51 -698 0
-52 51 0
-52 698 0
53 -5 -4 0
-53 5 0
-53 4 0
54 -53 -6 0
-54 53 0
-54 6 0
55 -699 -700 0
-55 699 0
-55 700 0
56 -701 -702 0
-56 701 0
-56 702 0
57 -56 -2 0
-57 56 0
-57 2 0
58 -703 -55 0
-58 703 0
-58 55 0
59 -8 -4 0
-59 8 0
-59 4 0
60 -59 -9 0
-60 59 0
-60 9 0
61 -704 -58 0
-61 704 0
-61 58 0
62 -11 -10 0
-62 11 0
-62 10 0
63 -62 -12 0
-63 62 0
-63 12 0
64 -705 -61 0
-64 705 0
-64 61 0
65 -706 -1 0
-65 706 0
-65 1 0
66 -65 -707 0
-66 65 0
-66 707 0
67 -708 -64 0
-67 708 0
-67 64 0
68 -709 -707 0
-68 709 0
-68 707 0
69 -68 -16 0
-69 68 0
-69 16 0
70 -710 -67 0
-70 710 0
-70 67 0
71 -711 -13 0
-71 711 0
-71 13 0
72 -71 -712 0
-72 71 0
-72 712 0
73 -713 -70 0
-73 713 0
-73 70 0
74 -11 -714 0
-74 11 0
-74 714 0
75 -74 -19 0
-75 74 0
-75 19 0
76 -715 -73 0
-76 715 0
-76 73 0
77 -20 -1 0
-77 20 0
-77 1 0
78 -77 -9 0
-78 77 0
-78 9 0
79 -716 -76 0
-79 716 0
-79 76 0
80 -717 -697 0
-80 717 0
-80 697 0
81 -80 -718 0
-81 80 0
-81 718 0
82 -719 -79 0
-82 719 0
-82 79 0
83 -17 -10 0
-83 17 0
-83 10 0
84 -83 -14 0
-84 83 0
-84 14 0
85 -720 -82 0
-85 720 0
-85 82 0
86 -23 -8 0
-86 23 0
-86 8 0
87 -86 -19 0
-87 86 0
-87 19 0
88 -721 -85 0
-88 721 0
-88 85 0
89 -722 -723 0
-89 722 0
-89 723 0
90 -89 -26 0
-90 89 0
-90 26 0
91 -724 -88 0
-91 724 0
-91 88 0
92 -27 -5 0
-92 27 0
-92 5 0
93 -92 -6 0
-93 92 0
-93 6 0
94 -725 -91 0
-94 725 0
-94 91 0
95 -29 -28 0
-95 29 0
-95 28 0
96 -95 -726 0
-96 95 0
-96 726 0
97 -727 -94 0
-97 727 0
-97 94 0
98 -728 -729 0
-98 728 0
-98 729 0
99 -98 -32 0
-99 98 0
-99 32 0
100 -730 -97 0
-100 730 0
-100 97 0
101 -33 -702 0
-101 33 0
-101 702 0
102 -101 -32 0
-102 101 0
-102 32 0
103 -731 -100 0
-103 731 0
-103 100 0
104 -20 -702 0
-104 20 0
-104 702 0
105 -104 -25 0
-105 104 0
-105 25 0
106 -732 -103 0
-106 732 0
-106 103 0
107 -701 -2 0
-107 701 0
-107 2 0
108 -107 -728 0
-108 107 0
-108 728 0
109 -733 -106 0
-109 733 0
-109 106 0
110 -734 -17 0
-110 734 0
-110 17 0
111 -110 -15 0
-111 110 0
-111 15 0
112 -735 -109 0
-112 735 0
-112 109 0
113 -736 -8 0
-113 736 0
-113 8 0
114 -113 -737 0
-114 113 0
-114 737 0
115 -738 -112 0
-115 738 0
-115 112 0
116 -24 -706 0
-116 24 0
-116 706 0
117 -116 -6 0
-117 116 0
-117 6 0
118 -739 -115 0
-118 739 0
-118 115 0
119 -33 -697 0
-119 33 0
-119 697 0
120 -119 -740 0
-120 119 0
-120 740 0
121 -741 -118 0
-121 741 0
-121 118 0
122 -742 -24 0
-122 742 0
-122 24 0
123 -122 -728 0
-123 122 0
-123 728 0
124 -743 -121 0
-124 743 0
-124 121 0
125 -744 -729 0
-125 744 0
-125 729 0
126 -125 -5 0
-126 125 0
-126 5 0
127 -745 -124 0
-127 745 0
-127 124 0
128 -38 -746 0
-128 38 0
-128 746 0
129 -128 -726 0
-129 128 0
-129 726 0
130 -747 -127 0
-130 747 0
-130 127 0
131 -39 -4 0
-131 39 0
-131 4 0
132 -131 -9 0
-132 131 0
-132 9 0
133 -748 -130 0
-133 748 0
-133 130 0
134 -40 -749 0
-134 40 0
-134 749 0
135 -134 -750 0
-135 134 0
-135 750 0
136 -751 -133 0
-136 751 0
-136 133 0
137 -752 -2 0
-137 752 0
-137 2 0
138 -137 -728 0
-138 137 0
-138 728 0
139 -753 -136 0
-139 753 0
-139 136 0
140 -13 -714 0
-140 13 0
-140 714 0
141 -140 -737 0
-141 140 0
-141 737 0
142 -754 -139 0
-142 754 0
-142 139 0
143 -755 -2 0
-143 755 0
-143 2 0
144 -143 -19 0
-144 143 0
-144 19 0
145 -756 -142 0
-145 756 0
-145 142 0
146 -757 -758 0
-146 757 0
-146 758 0
147 -146 -759 0
-147 146 0
-147 759 0
148 -760 -145 0
-148 760 0
-148 145 0
149 -43 -10 0
-149 43 0
-149 10 0
150 -149 -761 0
-150 149 0
-150 761 0
151 -762 -148 0
-151 762 0
-151 148 0
152 -763 -752 0
-152 763 0
-152 752 0
153 -152 -32 0
-153 152 0
-153 32 0
154 -764 -151 0
-154 764 0
-154 151 0
155 -765 -737 0
-155 765 0
-155 737 0
156 -155 -11 0
-156 155 0
-156 11 0
157 -766 -154 0
-157 766 0
-157 154 0
158 -767 -34 0
-158 767 0
-158 34 0
159 -158 -737 0
-159 158 0
-159 737 0
160 -768 -157 0
-160 768 0
-160 157 0
161 -43 -37 0
-161 43 0
-161 37 0
162 -161 -28 0
-162 161 0
-162 28 0
163 -769 -160 0
-163 769 0
-163 160 0
164 -770 -706 0
-164 770 0
-164 706 0
165 -164 -761 0
-165 164 0
-165 761 0
166 -771 -163 0
-166 771 0
-166 163 0
167 -742 -770 0
-167 742 0
-167 770 0
168 -167 -772 0
-168 167 0
-168 772 0
169 -773 -166 0
-169 773 0
-169 166 0
170 -763 -744 0
-170 763 0
-170 744 0
171 -170 -47 0
-171 170 0
-171 47 0
172 -774 -169 0
-172 774 0
-172 169 0
173 -714 -9 0
-173 714 0
-173 9 0
174 -173 -775 0
-174 173 0
-174 775 0
175 -776 -172 0
-175 776 0
-175 172 0
176 -706 -702 0
-176 706 0
-176 702 0
177 -176 -736 0
-177 176 0
-177 736 0
178 -777 -175 0
-178 777 0
-178 175 0
179 -30 -778 0
-179 30 0
-179 778 0
180 -179 -772 0
-180 179 0
-180 772 0
181 -779 -178 0
-181 779 0
-181 178 0
182 -780 -28 0
-182 780 0
-182 28 0
183 -182 -8 0
-183 182 0
-183 8 0
184 -781 -181 0
-184 781 0
-184 181 0
185 -744 -717 0
-185 744 0
-185 717 0
186 -185 -7 0
-186 185 0
-186 7 0
187 -782 -184 0
-187 782 0
-187 184 0
188 -744 -23 0
-188 744 0
-188 23 0
189 -188 -46 0
-189 188 0
-189 46 0
190 -783 -187 0
-190 783 0
-190 187 0
191 -714 -701 0
-191 714 0
-191 701 0
192 -191 -712 0
-192 191 0
-192 712 0
193 -784 -190 0
-193 784 0
-193 190 0
194 -47 -30 0
-194 47 0
-194 30 0
195 -194 -742 0
-195 194 0
-195 742 0
196 -785 -193 0
-196 785 0
-196 193 0
197 -761 -702 0
-197 761 0
-197 702 0
198 -197 -6 0
-198 197 0
-198 6 0
199 -786 -196 0
-199 786 0
-199 196 0
200 -787 -788 0
-200 787 0
-200 788 0
201 -200 -14 0
-201 200 0
-201 14 0
202 -789 -199 0
-202 789 0
-202 199 0
203 -26 -790 0
-203 26 0
-203 790 0
204 -203 -772 0
-204 203 0
-204 772 0
205 -791 -202 0
-205 791 0
-205 202 0
206 -787 -792 0
-206 787 0
-206 792 0
207 -206 -31 0
-207 206 0
-207 31 0
208 -793 -205 0
-208 793 0
-208 205 0
209 -35 -30 0
-209 35 0
-209 30 0
210 -209 -29 0
-210 209 0
-210 29 0
211 -794 -208 0
-211 794 0
-211 208 0
212 -729 -24 0
-212 729 0
-212 24 0
213 -212 -702 0
-213 212 0
-213 702 0
214 -795 -211 0
-214 795 0
-214 211 0
215 -796 -702 0
-215 796 0
-215 702 0
216 -215 -775 0
-216 215 0
-216 775 0
217 -797 -214 0
-217 797 0
-217 214 0
218 -778 -717 0
-218 778 0
-218 717 0
219 -218 -5 0
-219 218 0
-219 5 0
220 -798 -217 0
-220 798 0
-220 217 0
221 -770 -3 0
-221 770 0
-221 3 0
222 -221 -759 0
-222 221 0
-222 759 0
223 -799 -220 0
-223 799 0
-223 220 0
224 -43 -13 0
-224 43 0
-224 13 0
225 -224 -759 0
-225 224 0
-225 759 0
226 -800 -223 0
-226 800 0
-226 223 0
227 -737 -15 0
-227 737 0
-227 15 0
228 -227 -6 0
-228 227 0
-228 6 0
229 -801 -226 0
-229 801 0
-229 226 0
230 -707 -8 0
-230 707 0
-230 8 0
231 -230 -790 0
-231 230 0
-231 790 0
232 -802 -229 0
-232 802 0
-232 229 0
233 -43 -36 0
-233 43 0
-233 36 0
234 -233 -728 0
-234 233 0
-234 728 0
235 -803 -232 0
-235 803 0
-235 232 0
236 -788 -717 0
-236 788 0
-236 717 0
237 -236 -22 0
-237 236 0
-237 22 0
238 -804 -235 0
-238 804 0
-238 235 0
239 -45 -757 0
-239 45 0
-239 757 0
240 -239 -707 0
-240 239 0
-240 707 0
241 -805 -238 0
-241 805 0
-241 238 0
242 -806 -5 0
-242 806 0
-242 5 0
243 -242 -36 0
-243 242 0
-243 36 0
244 -807 -241 0
-244 807 0
-244 241 0
245 -767 -697 0
-245 767 0
-245 697 0
246 -245 -775 0
-246 245 0
-246 775 0
247 -808 -244 0
-247 808 0
-247 244 0
248 -46 -31 0
-248 46 0
-248 31 0
249 -248 -746 0
-249 248 0
-249 746 0
250 -809 -247 0
-250 809 0
-250 247 0
251 -28 -21 0
-251 28 0
-251 21 0
252 -251 -746 0
-252 251 0
-252 746 0
253 -810 -250 0
-253 810 0
-253 250 0
254 -761 -750 0
-254 761 0
-254 750 0
255 -254 -18 0
-255 254 0
-255 18 0
256 -811 -253 0
-256 811 0
-256 253 0
257 -778 -20 0
-257 778 0
-257 20 0
258 -257 -790 0
-258 257 0
-258 790 0
259 -812 -256 0
-259 812 0
-259 256 0
260 -796 -749 0
-260 796 0
-260 749 0
261 -260 -32 0
-261 260 0
-261 32 0
262 -813 -259 0
-262 813 0
-262 259 0
263 -767 -717 0
-263 767 0
-263 717 0
264 -263 -16 0
-264 263 0
-264 16 0
265 -814 -262 0
-265 814 0
-265 262 0
266 -45 -744 0
-266 45 0
-266 744 0
267 -266 -714 0
-267 266 0
-267 714 0
268 -815 -265 0
-268 815 0
-268 265 0
269 -763 -24 0
-269 763 0
-269 24 0
270 -269 -697 0
-270 269 0
-270 697 0
271 -816 -268 0
-271 816 0
-271 268 0
272 -765 -728 0
-272 765 0
-272 728 0
273 -272 -12 0
-273 272 0
-273 12 0
274 -817 -271 0
-274 817 0
-274 271 0
275 -722 -20 0
-275 722 0
-275 20 0
276 -275 -818 0
-276 275 0
-276 818 0
277 -819 -274 0
-277 819 0
-277 274 0
278 -755 -8 0
-278 755 0
-278 8 0
279 -278 -778 0
-279 278 0
-279 778 0
280 -820 -277 0
-280 820 0
-280 277 0
281 -47 -17 0
-281 47 0
-281 17 0
282 -281 -36 0
-282 281 0
-282 36 0
283 -821 -280 0
-283 821 0
-283 280 0
284 -45 -749 0
-284 45 0
-284 749 0
285 -284 -761 0
-285 284 0
-285 761 0
286 -822 -283 0
-286 822 0
-286 283 0
287 -47 -765 0
-287 47 0
-287 765 0
288 -287 -790 0
-288 287 0
-288 790 0
289 -823 -286 0
-289 823 0
-289 286 0
290 -15 -7 0
-290 15 0
-290 7 0
291 -290 -775 0
-291 290 0
-291 775 0
292 -824 -289 0
-292 824 0
-292 289 0
293 -711 -7 0
-293 711 0
-293 7 0
294 -293 -36 0
-294 293 0
-294 36 0
295 -825 -292 0
-295 825 0
-295 292 0
296 -143 -826 0
-296 143 0
-296 826 0
297 -827 -295 0
-297 827 0
-297 295 0
298 -35 -17 0
-298 35 0
-298 17 0
299 -298 -740 0
-299 298 0
-299 740 0
300 -828 -297 0
-300 828 0
-300 297 0
301 -788 -37 0
-301 788 0
-301 37 0
302 -301 -29 0
-302 301 0
-302 29 0
303 -829 -300 0
-303 829 0
-303 300 0
304 -25 -16 0
-304 25 0
-304 16 0
305 -304 -6 0
-305 304 0
-305 6 0
306 -830 -303 0
-306 830 0
-306 303 0
307 -37 -697 0
-307 37 0
-307 697 0
308 -307 -796 0
-308 307 0
-308 796 0
309 -831 -306 0
-309 831 0
-309 306 0
310 -832 -728 0
-310 832 0
-310 728 0
311 -310 -22 0
-311 310 0
-311 22 0
312 -833 -309 0
-312 833 0
-312 309 0
313 -44 -729 0
-313 44 0
-313 729 0
314 -313 -726 0
-314 313 0
-314 726 0
315 -834 -312 0
-315 834 0
-315 312 0
316 -43 -718 0
-316 43 0
-316 718 0
317 -316 -32 0
-317 316 0
-317 32 0
318 -835 -315 0
-318 835 0
-318 315 0
319 -706 -697 0
-319 706 0
-319 697 0
320 -319 -755 0
-320 319 0
-320 755 0
321 -836 -318 0
-321 836 0
-321 318 0
322 -763 -750 0
-322 763 0
-322 750 0
323 -322 -709 0
-323 322 0
-323 709 0
324 -837 -321 0
-324 837 0
-324 321 0
325 -765 -14 0
-325 765 0
-325 14 0
326 -325 -35 0
-326 325 0
-326 35 0
327 -838 -324 0
-327 838 0
-327 324 0
328 -717 -8 0
-328 717 0
-328 8 0
329 -328 -818 0
-329 328 0
-329 818 0
330 -839 -327 0
-330 839 0
-330 327 0
331 -723 -9 0
-331 723 0
-331 9 0
332 -331 -746 0
-332 331 0
-332 746 0
333 -840 -330 0
-333 840 0
-333 330 0
334 -759 -749 0
-334 759 0
-334 749 0
335 -334 -712 0
-335 334 0
-335 712 0
336 -841 -333 0
-336 841 0
-336 333 0
337 -36 -23 0
-337 36 0
-337 23 0
338 -337 -29 0
-338 337 0
-338 29 0
339 -842 -336 0
-339 842 0
-339 336 0
340 -34 -709 0
-340 34 0
-340 709 0
341 -340 -726 0
-341 340 0
-341 726 0
342 -843 -339 0
-342 843 0
-342 339 0
343 -48 -36 0
-343 48 0
-343 36 0
344 -343 -775 0
-344 343 0
-344 775 0
345 -844 -342 0
-345 844 0
-345 342 0
346 -763 -711 0
-346 763 0
-346 711 0
347 -346 -778 0
-347 346 0
-347 778 0
348 -845 -345 0
-348 845 0
-348 345 0
349 -38 -717 0
-349 38 0
-349 717 0
350 -349 -36 0
-350 349 0
-350 36 0
351 -846 -348 0
-351 846 0
-351 348 0
352 -788 -707 0
-352 788 0
-352 707 0
353 -352 -736 0
-353 352 0
-353 736 0
354 -847 -351 0
-354 847 0
-354 351 0
355 -717 -706 0
-355 717 0
-355 706 0
356 -355 -26 0
-356 355 0
-356 26 0
357 -848 -354 0
-357 848 0
-357 354 0
358 -275 -2 0
-358 275 0
-358 2 0
359 -849 -357 0
-359 849 0
-359 357 0
360 -737 -761 0
-360 737 0
-360 761 0
361 -360 -6 0
-361 360 0
-361 6 0
362 -850 -359 0
-362 850 0
-362 359 0
363 -755 -761 0
-363 755 0
-363 761 0
364 -363 -728 0
-364 363 0
-364 728 0
365 -851 -362 0
-365 851 0
-365 362 0
366 -49 -28 0
-366 49 0
-366 28 0
367 -366 -726 0
-367 366 0
-367 726 0
368 -852 -365 0
-368 852 0
-368 365 0
369 -38 -818 0
-369 38 0
-369 818 0
370 -369 -728 0
-370 369 0
-370 728 0
371 -853 -368 0
-371 853 0
-371 368 0
372 -23 -2 0
-372 23 0
-372 2 0
373 -372 -32 0
-373 372 0
-373 32 0
374 -854 -371 0
-374 854 0
-374 371 0
375 -49 -706 0
-375 49 0
-375 706 0
376 -375 -32 0
-376 375 0
-376 32 0
377 -855 -374 0
-377 855 0
-377 374 0
378 -763 -723 0
-378 763 0
-378 723 0
379 -378 -792 0
-379 378 0
-379 792 0
380 -856 -377 0
-380 856 0
-380 377 0
381 -17 -14 0
-381 17 0
-381 14 0
382 -381 -12 0
-382 381 0
-382 12 0
383 -857 -380 0
-383 857 0
-383 380 0
384 -41 -7 0
-384 41 0
-384 7 0
385 -384 -49 0
-385 384 0
-385 49 0
386 -858 -383 0
-386 858 0
-386 383 0
387 -755 -4 0
-387 755 0
-387 4 0
388 -387 -736 0
-388 387 0
-388 736 0
389 -859 -386 0
-389 859 0
-389 386 0
390 -30 -26 0
-390 30 0
-390 26 0
391 -390 -818 0
-391 390 0
-391 818 0
392 -860 -389 0
-392 860 0
-392 389 0
393 -770 -17 0
-393 770 0
-393 17 0
394 -393 -714 0
-394 393 0
-394 714 0
395 -861 -392 0
-395 861 0
-395 392 0
396 -50 -33 0
-396 50 0
-396 33 0
397 -396 -734 0
-397 396 0
-397 734 0
398 -862 -395 0
-398 862 0
-398 395 0
399 -755 -1 0
-399 755 0
-399 1 0
400 -399 -767 0
-400 399 0
-400 767 0
401 -863 -398 0
-401 863 0
-401 398 0
402 -46 -736 0
-402 46 0
-402 736 0
403 -402 -737 0
-403 402 0
-403 737 0
404 -864 -401 0
-404 864 0
-404 401 0
405 -865 -701 0
-405 865 0
-405 701 0
406 -405 -49 0
-406 405 0
-406 49 0
407 -866 -404 0
-407 866 0
-407 404 0
408 -41 -752 0
-408 41 0
-408 752 0
409 -408 -712 0
-409 408 0
-409 712 0
410 -867 -407 0
-410 867 0
-410 407 0
411 -780 -752 0
-411 780 0
-411 752 0
412 -411 -726 0
-412 411 0
-412 726 0
413 -868 -410 0
-413 868 0
-413 410 0
414 -49 -7 0
-414 49 0
-414 7 0
415 -414 -759 0
-415 414 0
-415 759 0
416 -869 -413 0
-416 869 0
-416 413 0
417 -787 -10 0
-417 787 0
-417 10 0
418 -417 -772 0
-418 417 0
-418 772 0
419 -870 -416 0
-419 870 0
-419 416 0
420 -37 -7 0
-420 37 0
-420 7 0
421 -420 -9 0
-421 420 0
-421 9 0
422 -871 -419 0
-422 871 0
-422 419 0
423 -865 -45 0
-423 865 0
-423 45 0
424 -423 -806 0
-424 423 0
-424 806 0
425 -872 -422 0
-425 872 0
-425 422 0
426 -41 -35 0
-426 41 0
-426 35 0
427 -426 -5 0
-427 426 0
-427 5 0
428 -873 -425 0
-428 873 0
-428 425 0
429 -27 -1 0
-429 27 0
-429 1 0
430 -429 -11 0
-430 429 0
-430 11 0
431 -874 -428 0
-431 874 0
-431 428 0
432 -737 -28 0
-432 737 0
-432 28 0
433 -432 -12 0
-433 432 0
-433 12 0
434 -875 -431 0
-434 875 0
-434 431 0
435 -30 -1 0
-435 30 0
-435 1 0
436 -435 -737 0
-436 435 0
-436 737 0
437 -876 -434 0
-437 876 0
-437 434 0
438 -744 -32 0
-438 744 0
-438 32 0
439 -438 -726 0
-439 438 0
-439 726 0
440 -877 -437 0
-440 877 0
-440 437 0
441 -49 -1 0
-441 49 0
-441 1 0
442 -441 -790 0
-442 441 0
-442 790 0
443 -878 -440 0
-443 878 0
-443 440 0
444 -39 -701 0
-444 39 0
-444 701 0
445 -444 -31 0
-445 444 0
-445 31 0
446 -879 -443 0
-446 879 0
-446 443 0
447 -47 -33 0
-447 47 0
-447 33 0
448 -447 -38 0
-448 447 0
-448 38 0
449 -880 -446 0
-449 880 0
-449 446 0
450 -45 -2 0
-450 45 0
-450 2 0
451 -450 -759 0
-451 450 0
-451 759 0
452 -881 -449 0
-452 881 0
-452 449 0
453 -746 -826 0
-453 746 0
-453 826 0
454 -453 -6 0
-454 453 0
-454 6 0
455 -882 -452 0
-455 882 0
-455 452 0
456 -25 -826 0
-456 25 0
-456 826 0
457 -456 -746 0
-457 456 0
-457 746 0
458 -883 -455 0
-458 883 0
-458 455 0
459 -48 -19 0
-459 48 0
-459 19 0
460 -459 -712 0
-460 459 0
-460 712 0
461 -884 -458 0
-461 884 0
-461 458 0
462 -734 -714 0
-462 734 0
-462 714 0
463 -462 -698 0
-463 462 0
-463 698 0
464 -885 -461 0
-464 885 0
-464 461 0
465 -757 -19 0
-465 757 0
-465 19 0
466 -465 -775 0
-466 465 0
-466 775 0
467 -886 -464 0
-467 886 0
-467 464 0
468 -45 -30 0
-468 45 0
-468 30 0
469 -468 -14 0
-469 468 0
-469 14 0
470 -887 -467 0
-470 887 0
-470 467 0
471 -34 -758 0
-471 34 0
-471 758 0
472 -471 -796 0
-472 471 0
-472 796 0
473 -888 -470 0
-473 888 0
-473 470 0
474 -44 -15 0
-474 44 0
-474 15 0
475 -474 -32 0
-475 474 0
-475 32 0
476 -889 -473 0
-476 889 0
-476 473 0
477 -765 -763 0
-477 765 0
-477 763 0
478 -477 -806 0
-478 477 0
-478 806 0
479 -890 -476 0
-479 890 0
-479 476 0
480 -780 -20 0
-480 780 0
-480 20 0
481 -480 -15 0
-481 480 0
-481 15 0
482 -891 -479 0
-482 891 0
-482 479 0
483 -47 -27 0
-483 47 0
-483 27 0
484 -483 -792 0
-484 483 0
-484 792 0
485 -892 -482 0
-485 892 0
-485 482 0
486 -734 -717 0
-486 734 0
-486 717 0
487 -486 -790 0
-487 486 0
-487 790 0
488 -893 -485 0
-488 893 0
-488 485 0
489 -763 -806 0
-489 763 0
-489 806 0
490 -489 -701 0
-490 489 0
-490 701 0
491 -894 -488 0
-491 894 0
-491 488 0
492 -46 -25 0
-492 46 0
-492 25 0
493 -492 -746 0
-493 492 0
-493 746 0
494 -895 -491 0
-494 895 0
-494 491 0
495 -269 -726 0
-495 269 0
-495 726 0
496 -896 -494 0
-496 896 0
-496 494 0
497 -49 -737 0
-497 49 0
-497 737 0
498 -497 -29 0
-498 497 0
-498 29 0
499 -897 -496 0
-499 897 0
-499 496 0
500 -780 -2 0
-500 780 0
-500 2 0
501 -500 -759 0
-501 500 0
-501 759 0
502 -898 -499 0
-502 898 0
-502 499 0
503 -707 -714 0
-503 707 0
-503 714 0
504 -503 -740 0
-504 503 0
-504 740 0
505 -899 -502 0
-505 899 0
-505 502 0
506 -21 -20 0
-506 21 0
-506 20 0
507 -506 -35 0
-507 506 0
-507 35 0
508 -900 -505 0
-508 900 0
-508 505 0
509 -26 -740 0
-509 26 0
-509 740 0
510 -509 -11 0
-510 509 0
-510 11 0
511 -901 -508 0
-511 901 0
-511 508 0
512 -27 -702 0
-512 27 0
-512 702 0
513 -512 -6 0
-513 512 0
-513 6 0
514 -902 -511 0
-514 902 0
-514 511 0
515 -33 -13 0
-515 33 0
-515 13 0
516 -515 -4 0
-516 515 0
-516 4 0
517 -903 -514 0
-517 903 0
-517 514 0
518 -48 -17 0
-518 48 0
-518 17 0
519 -518 -806 0
-519 518 0
-519 806 0
520 -904 -517 0
-520 904 0
-520 517 0
521 -24 -17 0
-521 24 0
-521 17 0
522 -521 -796 0
-522 521 0
-522 796 0
523 -905 -520 0
-523 905 0
-523 520 0
524 -27 -714 0
-524 27 0
-524 714 0
525 -524 -48 0
-525 524 0
-525 48 0
526 -906 -523 0
-526 906 0
-526 523 0
527 -832 -736 0
-527 832 0
-527 736 0
528 -527 -31 0
-528 527 0
-528 31 0
529 -907 -526 0
-529 907 0
-529 526 0
530 -832 -33 0
-530 832 0
-530 33 0
531 -530 -759 0
-531 530 0
-531 759 0
532 -908 -529 0
-532 908 0
-532 529 0
533 -24 -23 0
-533 24 0
-533 23 0
534 -533 -728 0
-534 533 0
-534 728 0
535 -909 -532 0
-535 909 0
-535 532 0
536 -25 -14 0
-536 25 0
-536 14 0
537 -536 -772 0
-537 536 0
-537 772 0
538 -910 -535 0
-538 910 0
-538 535 0
539 -780 -5 0
-539 780 0
-539 5 0
540 -539 -18 0
-540 539 0
-540 18 0
541 -911 -538 0
-541 911 0
-541 538 0
542 -752 -758 0
-542 752 0
-542 758 0
543 -542 -761 0
-543 542 0
-543 761 0
544 -912 -541 0
-544 912 0
-544 541 0
545 -787 -697 0
-545 787 0
-545 697 0
546 -545 -718 0
-546 545 0
-546 718 0
547 -913 -544 0
-547 913 0
-547 544 0
548 -48 -35 0
-548 48 0
-548 35 0
549 -548 -718 0
-549 548 0
-549 718 0
550 -914 -547 0
-550 914 0
-550 547 0
551 -778 -790 0
-551 778 0
-551 790 0
552 -551 -712 0
-552 551 0
-552 712 0
553 -915 -550 0
-553 915 0
-553 550 0
554 -45 -27 0
-554 45 0
-554 27 0
555 -554 -14 0
-555 554 0
-555 14 0
556 -916 -553 0
-556 916 0
-556 553 0
557 -37 -734 0
-557 37 0
-557 734 0
558 -557 -796 0
-558 557 0
-558 796 0
559 -917 -556 0
-559 917 0
-559 556 0
560 -832 -806 0
-560 832 0
-560 806 0
561 -560 -712 0
-561 560 0
-561 712 0
562 -918 -559 0
-562 918 0
-562 559 0
563 -792 -14 0
-563 792 0
-563 14 0
564 -563 -6 0
-564 563 0
-564 6 0
565 -919 -562 0
-565 919 0
-565 562 0
566 -737 -35 0
-566 737 0
-566 35 0
567 -566 -772 0
-567 566 0
-567 772 0
568 -920 -565 0
-568 920 0
-568 565 0
569 -49 -723 0
-569 49 0
-569 723 0
570 -569 -18 0
-570 569 0
-570 18 0
571 -921 -568 0
-571 921 0
-571 568 0
572 -35 -28 0
-572 35 0
-572 28 0
573 -572 -32 0
-573 572 0
-573 32 0
574 -922 -571 0
-574 922 0
-574 571 0
575 -749 -38 0
-575 749 0
-575 38 0
576 -575 -37 0
-576 575 0
-576 37 0
577 -923 -574 0
-577 923 0
-577 574 0
578 -717 -19 0
-578 717 0
-578 19 0
579 -578 -15 0
-579 578 0
-579 15 0
580 -924 -577 0
-580 924 0
-580 577 0
581 -757 -1 0
-581 757 0
-581 1 0
582 -581 -35 0
-582 581 0
-582 35 0
583 -925 -580 0
-583 925 0
-583 580 0
584 -35 -8 0
-584 35 0
-584 8 0
585 -584 -698 0
-585 584 0
-585 698 0
586 -926 -583 0
-586 926 0
-586 583 0
587 -832 -21 0
-587 832 0
-587 21 0
588 -587 -18 0
-588 587 0
-588 18 0
589 -927 -586 0
-589 927 0
-589 586 0
590 -765 -1 0
-590 765 0
-590 1 0
591 -590 -41 0
-591 590 0
-591 41 0
592 -928 -589 0
-592 928 0
-592 589 0
593 -158 -746 0
-593 158 0
-593 746 0
594 -929 -592 0
-594 929 0
-594 592 0
595 -865 -33 0
-595 865 0
-595 33 0
596 -595 -32 0
-596 595 0
-596 32 0
597 -930 -594 0
-597 930 0
-597 594 0
598 -43 -39 0
-598 43 0
-598 39 0
599 -598 -750 0
-599 598 0
-599 750 0
600 -931 -597 0
-600 931 0
-600 597 0
601 -723 -792 0
-601 723 0
-601 792 0
602 -601 -701 0
-602 601 0
-602 701 0
603 -932 -600 0
-603 932 0
-603 600 0
604 -729 -707 0
-604 729 0
-604 707 0
605 -604 -736 0
-605 604 0
-605 736 0
606 -933 -603 0
-606 933 0
-606 603 0
607 -41 -723 0
-607 41 0
-607 723 0
608 -607 -761 0
-608 607 0
-608 761 0
609 -934 -606 0
-609 934 0
-609 606 0
610 -767 -711 0
-610 767 0
-610 711 0
611 -610 -736 0
-611 610 0
-611 736 0
612 -935 -609 0
-612 935 0
-612 609 0
613 -34 -10 0
-613 34 0
-613 10 0
614 -613 -701 0
-614 613 0
-614 701 0
615 -936 -612 0
-615 936 0
-615 612 0
616 -38 -30 0
-616 38 0
-616 30 0
617 -616 -790 0
-617 616 0
-617 790 0
618 -937 -615 0
-618 937 0
-618 615 0
619 -47 -41 0
-619 47 0
-619 41 0
620 -619 -759 0
-620 619 0
-620 759 0
621 -938 -618 0
-621 938 0
-621 618 0
622 -737 -14 0
-622 737 0
-622 14 0
623 -622 -761 0
-623 622 0
-623 761 0
624 -939 -621 0
-624 939 0
-624 621 0
625 -728 -761 0
-625 728 0
-625 761 0
626 -625 -712 0
-626 625 0
-626 712 0
627 -940 -624 0
-627 940 0
-627 624 0
628 -48 -25 0
-628 48 0
-628 25 0
629 -628 -46 0
-629 628 0
-629 46 0
630 -941 -627 0
-630 941 0
-630 627 0
631 -718 -5 0
-631 718 0
-631 5 0
632 -631 -16 0
-632 631 0
-632 16 0
633 -942 -630 0
-633 942 0
-633 630 0
634 -41 -10 0
-634 41 0
-634 10 0
635 -634 -790 0
-635 634 0
-635 790 0
636 -943 -633 0
-636 943 0
-636 633 0
637 -557 -698 0
-637 557 0
-637 698 0
638 -944 -636 0
-638 944 0
-638 636 0
639 -29 -13 0
-639 29 0
-639 13 0
640 -639 -19 0
-640 639 0
-640 19 0
641 -945 -638 0
-641 945 0
-641 638 0
642 -742 -752 0
-642 742 0
-642 752 0
643 -642 -49 0
-643 642 0
-643 49 0
644 -946 -641 0
-644 946 0
-644 641 0
645 -792 -17 0
-645 792 0
-645 17 0
646 -645 -698 0
-646 645 0
-646 698 0
647 -947 -644 0
-647 947 0
-647 644 0
648 -524 -792 0
-648 524 0
-648 792 0
649 -948 -647 0
-649 948 0
-649 647 0
650 -47 -39 0
-650 47 0
-650 39 0
651 -650 -46 0
-651 650 0
-651 46 0
652 -949 -649 0
-652 949 0
-652 649 0
653 -50 -17 0
-653 50 0
-653 17 0
654 -653 -755 0
-654 653 0
-654 755 0
655 -950 -652 0
-655 950 0
-655 652 0
656 -34 -707 0
-656 34 0
-656 707 0
657 -656 -12 0
-657 656 0
-657 12 0
658 -951 -655 0
-658 951 0
-658 655 0
659 -765 -21 0
-659 765 0
-659 21 0
660 -659 -33 0
-660 659 0
-660 33 0
661 -952 -658 0
-661 952 0
-661 658 0
662 -759 -26 0
-662 759 0
-662 26 0
663 -662 -22 0
-663 662 0
-663 22 0
664 -953 -661 0
-664 953 0
-664 661 0
665 -44 -10 0
-665 44 0
-665 10 0
666 -665 -22 0
-666 665 0
-666 22 0
667 -954 -664 0
-667 954 0
-667 664 0
668 -34 -31 0
-668 34 0
-668 31 0
669 -668 -22 0
-669 668 0
-669 22 0
670 -955 -667 0
-670 955 0
-670 667 0
671 -396 -32 0
-671 396 0
-671 32 0
672 -956 -670 0
-672 956 0
-672 670 0
673 -27 -25 0
-673 27 0
-673 25 0
674 -673 -709 0
-674 673 0
-674 709 0
675 -957 -672 0
-675 957 0
-675 672 0
676 -729 -26 0
-676 729 0
-676 26 0
677 -676 -818 0
-677 676 0
-677 818 0
678 -958 -675 0
-678 958 0
-678 675 0
679 -767 -30 0
-679 767 0
-679 30 0
680 -679 -740 0
-680 679 0
-680 740 0
681 -959 -678 0
-681 959 0
-681 678 0
682 -44 -19 0
-682 44 0
-682 19 0
683 -682 -42 0
-683 682 0
-683 42 0
684 -960 -681 0
-684 960 0
-684 681 0
685 -44 -35 0
-685 44 0
-685 35 0
686 -685 -36 0
-686 685 0
-686 36 0
687 -961 -684 0
-687 961 0
-687 684 0
688 -40 -792 0
-688 40 0
-688 792 0
689 -688 -49 0
-689 688 0
-689 49 0
690 -962 -687 0
-690 962 0
-690 687 0
691 -50 -778 0
-691 50 0
-691 778 0
692 -691 -712 0
-692 691 0
-692 712 0
693 -963 -690 0
-693 963 0
-693 690 0
694 -30 -24 0
-694 30 0
-694 24 0
695 -694 -761 0
-695 694 0
-695 761 0
696 -964 -693 0
-696 964 0
-696 693 0
-697 -1 0
697 1 0
-698 -3 0
698 3 0
-699 -54 0
699 54 0
-700 -52 0
700 52 0
-701 -7 0
701 7 0
-702 -4 0
702 4 0
-703 -57 0
703 57 0
-704 -60 0
704 60 0
-705 -63 0
705 63 0
-706 -13 0
706 13 0
-707 -14 0
707 14 0
-708 -66 0
708 66 0
-709 -15 0
709 15 0
-710 -69 0
710 69 0
-711 -17 0
711 17 0
-712 -18 0
712 18 0
-713 -72 0
713 72 0
-714 -10 0
714 10 0
-715 -75 0
715 75 0
-716 -78 0
716 78 0
-717 -21 0
717 21 0
-718 -22 0
718 22 0
-719 -81 0
719 81 0
-720 -84 0
720 84 0
-721 -87 0
721 87 0
-722 -25 0
722 25 0
-723 -24 0
723 24 0
-724 -90 0
724 90 0
-725 -93 0
725 93 0
-726 -6 0
726 6 0
-727 -96 0
727 96 0
-728 -31 0
728 31 0
-729 -30 0
729 30 0
-730 -99 0
730 99 0
-731 -102 0
731 102 0
-732 -105 0
732 105 0
-733 -108 0
733 108 0
-734 -34 0
734 34 0
-735 -111 0
735 111 0
-736 -35 0
736 35 0
-737 -36 0
737 36 0
-738 -114 0
738 114 0
-739 -117 0
739 117 0
-740 -5 0
740 5 0
-741 -120 0
741 120 0
-742 -37 0
742 37 0
-743 -123 0
743 123 0
-744 -33 0
744 33 0
-745 -126 0
745 126 0
-746 -16 0
746 16 0
-747 -129 0
747 129 0
-748 -132 0
748 132 0
-749 -39 0
749 39 0
-750 -2 0
750 2 0
-751 -135 0
751 135 0
-752 -28 0
752 28 0
-753 -138 0
753 138 0
-754 -141 0
754 141 0
-755 -41 0
755 41 0
-756 -144 0
756 144 0
-757 -20 0
757 20 0
-758 -8 0
758 8 0
-759 -42 0
759 42 0
-760 -147 0
760 147 0
-761 -11 0
761 11 0
-762 -150 0
762 150 0
-763 -44 0
763 44 0
-764 -153 0
764 153 0
-765 -45 0
765 45 0
-766 -156 0
766 156 0
-767 -46 0
767 46 0
-768 -159 0
768 159 0
-769 -162 0
769 162 0
-770 -27 0
770 27 0
-771 -165 0
771 165 0
-772 -9 0
772 9 0
-773 -168 0
773 168 0
-774 -171 0
774 171 0
-775 -32 0
775 32 0
-776 -174 0
776 174 0
-777 -177 0
777 177 0
-778 -26 0
778 26 0
-779 -180 0
779 180 0
-780 -47 0
780 47 0
-781 -183 0
781 183 0
-782 -186 0
782 186 0
-783 -189 0
783 189 0
-784 -192 0
784 192 0
-785 -195 0
785 195 0
-786 -198 0
786 198 0
-787 -48 0
787 48 0
-788 -40 0
788 40 0
-789 -201 0
789 201 0
-790 -19 0
790 19 0
-791 -204 0
791 204 0
-792 -23 0
792 23 0
-793 -207 0
793 207 0
-794 -210 0
794 210 0
-795 -213 0
795 213 0
-796 -49 0
796 49 0
-797 -216 0
797 216 0
-798 -219 0
798 219 0
-799 -222 0
799 222 0
-800 -225 0
800 225 0
-801 -228 0
801 228 0
-802 -231 0
802 231 0
-803 -234 0
803 234 0
-804 -237 0
804 237 0
-805 -240 0
805 240 0
-806 -38 0
806 38 0
-807 -243 0
807 243 0
-808 -246 0
808 246 0
-809 -249 0
809 249 0
-810 -252 0
810 252 0
-811 -255 0
811 255 0
-812 -258 0
812 258 0
-813 -261 0
813 261 0
-814 -264 0
814 264 0
-815 -267 0
815 267 0
-816 -270 0
816 270 0
-817 -273 0
817 273 0
-818 -29 0
818 29 0
-819 -276 0
819 276 0
-820 -279 0
820 279 0
-821 -282 0
821 282 0
-822 -285 0
822 285 0
-823 -288 0
823 288 0
-824 -291 0
824 291 0
-825 -294 0
825 294 0
-826 -12 0
826 12 0
-827 -296 0
827 296 0
-828 -299 0
828 299 0
-829 -302 0
829 302 0
-830 -305 0
830 305 0
-831 -308 0
831 308 0
-832 -43 0
832 43 0
-833 -311 0
833 311 0
-834 -314 0
834 314 0
-835 -317 0
835 317 0
-836 -320 0
836 320 0
-837 -323 0
837 323 0
-838 -326 0
838 326 0
-839 -329 0
839 329 0
-840 -332 0
840 332 0
-841 -335 0
841 335 0
-842 -338 0
842 338 0
-843 -341 0
843 341 0
-844 -344 0
844 344 0
-845 -347 0
845 347 0
-846 -350 0
846 350 0
-847 -353 0
847 353 0
-848 -356 0
848 356 0
-849 -358 0
849 358 0
-850 -361 0
850 361 0
-851 -364 0
851 364 0
-852 -367 0
852 367 0
-853 -370 0
853 370 0
-854 -373 0
854 373 0
-855 -376 0
855 376 0
-856 -379 0
856 379 0
-857 -382 0
857 382 0
-858 -385 0
858 385 0
-859 -388 0
859 388 0
-860 -391 0
860 391 0
-861 -394 0
861 394 0
-862 -397 0
862 397 0
-863 -400 0
863 400 0
-864 -403 0
864 403 0
-865 -50 0
865 50 0
-866 -406 0
866 406 0
-867 -409 0
867 409 0
-868 -412 0
868 412 0
-869 -415 0
869 415 0
-870 -418 0
870 418 0
-871 -421 0
871 421 0
-872 -424 0
872 424 0
-873 -427 0
873 427 0
-874 -430 0
874 430 0
-875 -433 0
875 433 0
-876 -436 0
876 436 0
-877 -439 0
877 439 0
-878 -442 0
878 442 0
-879 -445 0
879 445 0
-880 -448 0
880 448 0
-881 -451 0
881 451 0
-882 -454 0
882 454 0
-883 -457 0
883 457 0
-884 -460 0
884 460 0
-885 -463 0
885 463 0
-886 -466 0
886 466 0
-887 -469 0
887 469 0
-888 -472 0
888 472 0
-889 -475 0
889 475 0
-890 -478 0
890 478 0
-891 -481 0
891 481 0
-892 -484 0
892 484 0
-893 -487 0
893 487 0
-894 -490 0
894 490 0
-895 -493 0
895 493 0
-896 -495 0
896 495 0
-897 -498 0
897 498 0
-898 -501 0
898 501 0
-899 -504 0
899 504 0
-900 -507 0
900 507 0
-901 -510 0
901 510 0
-902 -513 0
902 513 0
-903 -516 0
903 516 0
-904 -519 0
904 519 0
-905 -522 0
905 522 0
-906 -525 0
906 525 0
-907 -528 0
907 528 0
-908 -531 0
908 531 0
-909 -534 0
909 534 0
-910 -537 0
910 537 0
-911 -540 0
911 540 0
-912 -543 0
912 543 0
-913 -546 0
913 546 0
-914 -549 0
914 549 0
-915 -552 0
915 552 0
-916 -555 0
916 555 0
-917 -558 0
917 558 0
-918 -561 0
918 561 0
-919 -564 0
919 564 0
-920 -567 0
920 567 0
-921 -570 0
921 570 0
-922 -573 0
922 573 0
-923 -576 0
923 576 0
-924 -579 0
924 579 0
-925 -582 0
925 582 0
-926 -585 0
926 585 0
-927 -588 0
927 588 0
-928 -591 0
928 591 0
-929 -593 0
929 593 0
-930 -596 0
930 596 0
-931 -599 0
931 599 0
-932 -602 0
932 602 0
-933 -605 0
933 605 0
-934 -608 0
934 608 0
-935 -611 0
935 611 0
-936 -614 0
936 614 0
-937 -617 0
937 617 0
-938 -620 0
938 620 0
-939 -623 0
939 623 0
-940 -626 0
940 626 0
-941 -629 0
941 629 0
-942 -632 0
942 632 0
-943 -635 0
943 635 0
-944 -637 0
944 637 0
-945 -640 0
945 640 0
-946 -643 0
946 643 0
-947 -646 0
947 646 0
-948 -648 0
948 648 0
-949 -651 0
949 651 0
-950 -654 0
950 654 0
-951 -657 0
951 657 0
-952 -660 0
952 660 0
-953 -663 0
953 663 0
-954 -666 0
954 666 0
-955 -669 0
955 669 0
-956 -671 0
956 671 0
-957 -674 0
957 674 0
-958 -677 0
958 677 0
-959 -680 0
959 680 0
-960 -683 0
960 683 0
-961 -686 0
961 686 0
-962 -689 0
962 689 0
-963 -692 0
963 692 0
-964 -695 0
964 695 0
696 0
